60
1 0 2
2 0 6
2 1 7
3 0 4
3 1 3
3 2 3
4 0 3
4 1 6
4 2 1
4 3 6
5 0 1
5 1 1
5 2 4
5 3 1
5 4 7
6 0 7
6 1 5
6 2 4
6 3 5
6 4 1
6 5 3
7 0 1
7 1 4
7 2 7
7 3 1
7 4 4
7 5 2
7 6 4
8 0 3
8 1 6
8 2 2
8 3 3
8 4 1
8 5 3
8 6 6
8 7 4
9 0 7
9 1 3
9 2 1
9 3 2
9 4 7
9 5 3
9 6 7
9 7 5
9 8 3
10 0 4
10 1 6
10 2 1
10 3 1
10 4 6
10 5 5
10 6 3
10 7 5
10 8 1
10 9 1
11 0 6
11 1 2
11 2 4
11 3 5
11 4 1
11 5 4
11 6 2
11 7 1
11 8 2
11 9 1
11 10 1
12 0 4
12 1 2
12 2 5
12 3 7
12 4 5
12 5 1
12 6 5
12 7 5
12 8 1
12 9 5
12 10 4
12 11 5
13 0 6
13 1 6
13 2 7
13 3 3
13 4 6
13 5 5
13 6 2
13 7 6
13 8 7
13 9 7
13 10 5
13 11 1
13 12 5
14 0 3
14 1 7
14 2 4
14 3 6
14 4 1
14 5 5
14 6 1
14 7 2
14 8 7
14 9 6
14 10 4
14 11 6
14 12 6
14 13 2
15 0 5
15 1 2
15 2 1
15 3 5
15 4 3
15 5 7
15 6 7
15 7 6
15 8 6
15 9 2
15 10 6
15 11 4
15 12 1
15 13 1
15 14 3
16 0 2
16 1 3
16 2 7
16 3 3
16 4 4
16 5 1
16 6 6
16 7 2
16 8 5
16 9 5
16 10 7
16 11 6
16 12 6
16 13 4
16 14 6
16 15 3
17 0 2
17 1 3
17 2 4
17 3 6
17 4 7
17 5 6
17 6 4
17 7 4
17 8 2
17 9 3
17 10 7
17 11 3
17 12 3
17 13 7
17 14 3
17 15 7
17 16 2
18 0 6
18 1 2
18 2 4
18 3 5
18 4 7
18 5 5
18 6 2
18 7 6
18 8 6
18 9 7
18 10 3
18 11 1
18 12 3
18 13 2
18 14 7
18 15 3
18 16 2
18 17 5
19 0 6
19 1 6
19 2 5
19 3 7
19 4 4
19 5 6
19 6 1
19 7 1
19 8 7
19 9 3
19 10 4
19 11 5
19 12 5
19 13 4
19 14 3
19 15 4
19 16 2
19 17 1
19 18 1
20 0 5
20 1 3
20 2 7
20 3 1
20 4 6
20 5 7
20 6 2
20 7 5
20 8 5
20 9 5
20 10 5
20 11 6
20 12 6
20 13 7
20 14 5
20 15 6
20 16 1
20 17 2
20 18 1
20 19 2
21 0 5
21 1 4
21 2 3
21 3 6
21 4 2
21 5 3
21 6 3
21 7 7
21 8 6
21 9 6
21 10 5
21 11 6
21 12 3
21 13 2
21 14 6
21 15 4
21 16 1
21 17 7
21 18 1
21 19 3
21 20 2
22 0 5
22 1 4
22 2 5
22 3 3
22 4 6
22 5 4
22 6 6
22 7 5
22 8 5
22 9 6
22 10 1
22 11 2
22 12 1
22 13 5
22 14 2
22 15 3
22 16 5
22 17 7
22 18 3
22 19 6
22 20 1
22 21 6
23 0 5
23 1 1
23 2 2
23 3 6
23 4 1
23 5 3
23 6 6
23 7 5
23 8 7
23 9 3
23 10 4
23 11 4
23 12 3
23 13 4
23 14 3
23 15 2
23 16 4
23 17 6
23 18 6
23 19 2
23 20 4
23 21 6
23 22 2
24 0 7
24 1 1
24 2 5
24 3 4
24 4 2
24 5 7
24 6 4
24 7 1
24 8 7
24 9 5
24 10 6
24 11 2
24 12 4
24 13 1
24 14 7
24 15 2
24 16 7
24 17 5
24 18 2
24 19 6
24 20 4
24 21 1
24 22 5
24 23 3
25 0 4
25 1 3
25 2 1
25 3 1
25 4 7
25 5 4
25 6 7
25 7 6
25 8 7
25 9 5
25 10 6
25 11 5
25 12 3
25 13 7
25 14 1
25 15 1
25 16 4
25 17 4
25 18 1
25 19 2
25 20 3
25 21 3
25 22 3
25 23 3
25 24 5
26 0 1
26 1 6
26 2 7
26 3 3
26 4 5
26 5 4
26 6 1
26 7 4
26 8 5
26 9 6
26 10 4
26 11 5
26 12 4
26 13 6
26 14 6
26 15 5
26 16 4
26 17 5
26 18 4
26 19 7
26 20 3
26 21 1
26 22 4
26 23 1
26 24 6
26 25 1
27 0 3
27 1 3
27 2 7
27 3 2
27 4 7
27 5 2
27 6 2
27 7 6
27 8 5
27 9 5
27 10 7
27 11 2
27 12 3
27 13 3
27 14 7
27 15 4
27 16 3
27 17 2
27 18 7
27 19 1
27 20 1
27 21 5
27 22 2
27 23 7
27 24 5
27 25 4
27 26 1
28 0 5
28 1 2
28 2 1
28 3 1
28 4 4
28 5 5
28 6 4
28 7 6
28 8 3
28 9 4
28 10 2
28 11 2
28 12 4
28 13 7
28 14 7
28 15 3
28 16 6
28 17 5
28 18 5
28 19 1
28 20 3
28 21 6
28 22 3
28 23 5
28 24 7
28 25 3
28 26 2
28 27 7
29 0 6
29 1 5
29 2 4
29 3 3
29 4 6
29 5 2
29 6 4
29 7 5
29 8 5
29 9 7
29 10 7
29 11 3
29 12 2
29 13 2
29 14 6
29 15 2
29 16 1
29 17 1
29 18 6
29 19 6
29 20 5
29 21 1
29 22 7
29 23 2
29 24 7
29 25 5
29 26 2
29 27 5
29 28 6
30 0 6
30 1 3
30 2 5
30 3 4
30 4 4
30 5 5
30 6 4
30 7 6
30 8 6
30 9 7
30 10 5
30 11 2
30 12 5
30 13 1
30 14 4
30 15 1
30 16 5
30 17 7
30 18 7
30 19 2
30 20 3
30 21 1
30 22 6
30 23 5
30 24 6
30 25 1
30 26 4
30 27 5
30 28 3
30 29 7
31 0 3
31 1 3
31 2 6
31 3 2
31 4 6
31 5 2
31 6 5
31 7 3
31 8 5
31 9 7
31 10 1
31 11 4
31 12 2
31 13 7
31 14 2
31 15 4
31 16 6
31 17 6
31 18 4
31 19 4
31 20 5
31 21 4
31 22 6
31 23 3
31 24 4
31 25 3
31 26 2
31 27 7
31 28 2
31 29 5
31 30 7
32 0 3
32 1 1
32 2 4
32 3 1
32 4 5
32 5 6
32 6 7
32 7 7
32 8 1
32 9 1
32 10 5
32 11 1
32 12 7
32 13 2
32 14 4
32 15 6
32 16 5
32 17 4
32 18 2
32 19 4
32 20 1
32 21 4
32 22 5
32 23 6
32 24 4
32 25 1
32 26 5
32 27 6
32 28 7
32 29 1
32 30 1
32 31 2
33 0 5
33 1 4
33 2 7
33 3 5
33 4 3
33 5 2
33 6 5
33 7 3
33 8 2
33 9 3
33 10 6
33 11 2
33 12 6
33 13 2
33 14 2
33 15 2
33 16 4
33 17 7
33 18 4
33 19 3
33 20 7
33 21 4
33 22 7
33 23 5
33 24 3
33 25 1
33 26 7
33 27 4
33 28 2
33 29 4
33 30 5
33 31 1
33 32 3
34 0 4
34 1 1
34 2 6
34 3 7
34 4 7
34 5 3
34 6 4
34 7 7
34 8 5
34 9 4
34 10 5
34 11 6
34 12 7
34 13 5
34 14 1
34 15 1
34 16 3
34 17 7
34 18 1
34 19 4
34 20 3
34 21 3
34 22 3
34 23 4
34 24 1
34 25 3
34 26 1
34 27 2
34 28 4
34 29 7
34 30 5
34 31 3
34 32 2
34 33 6
35 0 1
35 1 1
35 2 7
35 3 5
35 4 2
35 5 3
35 6 4
35 7 6
35 8 5
35 9 3
35 10 5
35 11 5
35 12 1
35 13 1
35 14 4
35 15 2
35 16 6
35 17 3
35 18 5
35 19 7
35 20 5
35 21 4
35 22 1
35 23 4
35 24 6
35 25 4
35 26 2
35 27 2
35 28 2
35 29 1
35 30 6
35 31 4
35 32 2
35 33 6
35 34 1
36 0 2
36 1 5
36 2 6
36 3 2
36 4 4
36 5 3
36 6 5
36 7 2
36 8 4
36 9 1
36 10 7
36 11 3
36 12 7
36 13 3
36 14 2
36 15 5
36 16 4
36 17 4
36 18 4
36 19 4
36 20 6
36 21 7
36 22 7
36 23 3
36 24 4
36 25 6
36 26 7
36 27 4
36 28 3
36 29 1
36 30 3
36 31 5
36 32 4
36 33 1
36 34 7
36 35 7
37 0 1
37 1 2
37 2 7
37 3 6
37 4 5
37 5 1
37 6 5
37 7 4
37 8 1
37 9 7
37 10 5
37 11 6
37 12 7
37 13 7
37 14 5
37 15 1
37 16 1
37 17 6
37 18 7
37 19 3
37 20 5
37 21 6
37 22 7
37 23 1
37 24 2
37 25 1
37 26 5
37 27 1
37 28 1
37 29 5
37 30 5
37 31 3
37 32 5
37 33 1
37 34 3
37 35 7
37 36 7
38 0 6
38 1 5
38 2 2
38 3 5
38 4 1
38 5 5
38 6 5
38 7 3
38 8 6
38 9 6
38 10 5
38 11 2
38 12 6
38 13 6
38 14 4
38 15 2
38 16 5
38 17 3
38 18 7
38 19 2
38 20 4
38 21 3
38 22 4
38 23 5
38 24 7
38 25 6
38 26 6
38 27 1
38 28 2
38 29 5
38 30 1
38 31 7
38 32 2
38 33 2
38 34 6
38 35 5
38 36 5
38 37 6
39 0 1
39 1 2
39 2 5
39 3 5
39 4 7
39 5 1
39 6 7
39 7 2
39 8 7
39 9 1
39 10 4
39 11 6
39 12 1
39 13 2
39 14 1
39 15 7
39 16 3
39 17 6
39 18 5
39 19 5
39 20 2
39 21 1
39 22 7
39 23 4
39 24 2
39 25 4
39 26 5
39 27 7
39 28 4
39 29 6
39 30 7
39 31 1
39 32 4
39 33 3
39 34 6
39 35 4
39 36 7
39 37 5
39 38 5
40 0 3
40 1 2
40 2 4
40 3 5
40 4 7
40 5 3
40 6 5
40 7 5
40 8 1
40 9 3
40 10 7
40 11 2
40 12 6
40 13 1
40 14 5
40 15 6
40 16 5
40 17 5
40 18 6
40 19 5
40 20 7
40 21 6
40 22 4
40 23 4
40 24 2
40 25 7
40 26 3
40 27 3
40 28 5
40 29 7
40 30 2
40 31 6
40 32 2
40 33 1
40 34 7
40 35 1
40 36 3
40 37 5
40 38 4
40 39 7
41 0 3
41 1 7
41 2 7
41 3 5
41 4 4
41 5 4
41 6 6
41 7 7
41 8 1
41 9 4
41 10 6
41 11 4
41 12 1
41 13 2
41 14 1
41 15 3
41 16 4
41 17 3
41 18 3
41 19 2
41 20 5
41 21 7
41 22 7
41 23 5
41 24 3
41 25 7
41 26 5
41 27 3
41 28 1
41 29 2
41 30 1
41 31 3
41 32 6
41 33 6
41 34 2
41 35 6
41 36 4
41 37 4
41 38 2
41 39 4
41 40 2
42 0 4
42 1 3
42 2 3
42 3 5
42 4 4
42 5 3
42 6 6
42 7 2
42 8 3
42 9 1
42 10 1
42 11 4
42 12 2
42 13 1
42 14 6
42 15 4
42 16 2
42 17 4
42 18 5
42 19 1
42 20 3
42 21 5
42 22 2
42 23 1
42 24 6
42 25 1
42 26 4
42 27 6
42 28 2
42 29 7
42 30 6
42 31 6
42 32 6
42 33 3
42 34 1
42 35 3
42 36 3
42 37 4
42 38 3
42 39 6
42 40 1
42 41 4
43 0 1
43 1 4
43 2 5
43 3 6
43 4 4
43 5 1
43 6 7
43 7 3
43 8 6
43 9 4
43 10 1
43 11 3
43 12 7
43 13 4
43 14 4
43 15 3
43 16 6
43 17 2
43 18 5
43 19 5
43 20 6
43 21 5
43 22 5
43 23 5
43 24 4
43 25 5
43 26 5
43 27 7
43 28 7
43 29 6
43 30 5
43 31 5
43 32 5
43 33 4
43 34 7
43 35 6
43 36 2
43 37 4
43 38 4
43 39 2
43 40 4
43 41 2
43 42 7
44 0 3
44 1 1
44 2 7
44 3 4
44 4 1
44 5 6
44 6 7
44 7 3
44 8 3
44 9 7
44 10 1
44 11 6
44 12 5
44 13 7
44 14 2
44 15 1
44 16 6
44 17 7
44 18 2
44 19 7
44 20 5
44 21 2
44 22 3
44 23 2
44 24 1
44 25 5
44 26 6
44 27 6
44 28 7
44 29 6
44 30 6
44 31 2
44 32 3
44 33 4
44 34 4
44 35 7
44 36 5
44 37 5
44 38 1
44 39 1
44 40 3
44 41 5
44 42 5
44 43 4
45 0 7
45 1 1
45 2 3
45 3 6
45 4 2
45 5 5
45 6 6
45 7 7
45 8 1
45 9 4
45 10 6
45 11 5
45 12 4
45 13 2
45 14 4
45 15 4
45 16 2
45 17 3
45 18 3
45 19 3
45 20 7
45 21 6
45 22 2
45 23 3
45 24 4
45 25 3
45 26 1
45 27 5
45 28 7
45 29 2
45 30 6
45 31 3
45 32 7
45 33 6
45 34 7
45 35 5
45 36 2
45 37 7
45 38 3
45 39 6
45 40 4
45 41 5
45 42 3
45 43 1
45 44 2
46 0 3
46 1 6
46 2 1
46 3 1
46 4 7
46 5 2
46 6 6
46 7 6
46 8 2
46 9 4
46 10 3
46 11 3
46 12 3
46 13 2
46 14 2
46 15 1
46 16 7
46 17 5
46 18 6
46 19 7
46 20 1
46 21 1
46 22 4
46 23 7
46 24 7
46 25 4
46 26 2
46 27 3
46 28 5
46 29 4
46 30 7
46 31 6
46 32 1
46 33 6
46 34 4
46 35 1
46 36 7
46 37 7
46 38 3
46 39 7
46 40 7
46 41 3
46 42 1
46 43 4
46 44 3
46 45 3
47 0 2
47 1 6
47 2 4
47 3 4
47 4 7
47 5 7
47 6 3
47 7 3
47 8 4
47 9 6
47 10 5
47 11 7
47 12 4
47 13 7
47 14 6
47 15 2
47 16 2
47 17 4
47 18 6
47 19 6
47 20 3
47 21 1
47 22 3
47 23 6
47 24 1
47 25 2
47 26 5
47 27 1
47 28 7
47 29 7
47 30 7
47 31 3
47 32 7
47 33 2
47 34 7
47 35 4
47 36 4
47 37 6
47 38 4
47 39 1
47 40 6
47 41 5
47 42 1
47 43 3
47 44 4
47 45 1
47 46 4
48 0 6
48 1 7
48 2 1
48 3 7
48 4 2
48 5 1
48 6 2
48 7 2
48 8 2
48 9 6
48 10 7
48 11 6
48 12 7
48 13 5
48 14 2
48 15 3
48 16 4
48 17 7
48 18 5
48 19 7
48 20 4
48 21 7
48 22 5
48 23 1
48 24 7
48 25 1
48 26 6
48 27 6
48 28 1
48 29 7
48 30 4
48 31 4
48 32 7
48 33 3
48 34 5
48 35 3
48 36 1
48 37 3
48 38 5
48 39 2
48 40 7
48 41 7
48 42 2
48 43 6
48 44 1
48 45 7
48 46 1
48 47 3
49 0 2
49 1 3
49 2 2
49 3 5
49 4 2
49 5 1
49 6 5
49 7 2
49 8 4
49 9 4
49 10 5
49 11 5
49 12 3
49 13 6
49 14 7
49 15 4
49 16 3
49 17 6
49 18 5
49 19 5
49 20 2
49 21 7
49 22 2
49 23 4
49 24 7
49 25 7
49 26 4
49 27 6
49 28 3
49 29 1
49 30 7
49 31 2
49 32 1
49 33 6
49 34 3
49 35 5
49 36 4
49 37 4
49 38 2
49 39 5
49 40 4
49 41 3
49 42 3
49 43 2
49 44 6
49 45 7
49 46 5
49 47 5
49 48 4
50 0 6
50 1 4
50 2 7
50 3 1
50 4 7
50 5 3
50 6 2
50 7 1
50 8 3
50 9 6
50 10 2
50 11 5
50 12 7
50 13 3
50 14 1
50 15 1
50 16 4
50 17 4
50 18 7
50 19 5
50 20 3
50 21 7
50 22 4
50 23 5
50 24 1
50 25 1
50 26 6
50 27 2
50 28 7
50 29 5
50 30 3
50 31 2
50 32 7
50 33 2
50 34 2
50 35 1
50 36 5
50 37 3
50 38 2
50 39 6
50 40 5
50 41 7
50 42 4
50 43 2
50 44 5
50 45 2
50 46 7
50 47 7
50 48 6
50 49 5
51 0 2
51 1 1
51 2 4
51 3 3
51 4 4
51 5 7
51 6 6
51 7 2
51 8 7
51 9 6
51 10 3
51 11 6
51 12 3
51 13 7
51 14 2
51 15 1
51 16 5
51 17 4
51 18 6
51 19 1
51 20 6
51 21 1
51 22 1
51 23 2
51 24 2
51 25 5
51 26 5
51 27 7
51 28 6
51 29 1
51 30 6
51 31 5
51 32 1
51 33 1
51 34 1
51 35 3
51 36 7
51 37 2
51 38 4
51 39 5
51 40 4
51 41 4
51 42 6
51 43 5
51 44 4
51 45 2
51 46 3
51 47 3
51 48 4
51 49 7
51 50 2
52 0 2
52 1 1
52 2 5
52 3 7
52 4 2
52 5 4
52 6 7
52 7 1
52 8 6
52 9 5
52 10 6
52 11 7
52 12 4
52 13 1
52 14 2
52 15 7
52 16 5
52 17 4
52 18 4
52 19 5
52 20 4
52 21 5
52 22 6
52 23 5
52 24 3
52 25 2
52 26 3
52 27 2
52 28 5
52 29 2
52 30 7
52 31 7
52 32 7
52 33 2
52 34 7
52 35 5
52 36 2
52 37 2
52 38 5
52 39 2
52 40 5
52 41 7
52 42 4
52 43 7
52 44 5
52 45 2
52 46 4
52 47 6
52 48 3
52 49 5
52 50 5
52 51 3
53 0 1
53 1 3
53 2 3
53 3 2
53 4 2
53 5 7
53 6 4
53 7 7
53 8 3
53 9 1
53 10 7
53 11 2
53 12 4
53 13 2
53 14 5
53 15 2
53 16 3
53 17 4
53 18 6
53 19 7
53 20 1
53 21 6
53 22 1
53 23 1
53 24 4
53 25 2
53 26 5
53 27 3
53 28 4
53 29 7
53 30 5
53 31 7
53 32 1
53 33 1
53 34 5
53 35 6
53 36 5
53 37 2
53 38 1
53 39 6
53 40 7
53 41 6
53 42 5
53 43 4
53 44 2
53 45 4
53 46 3
53 47 6
53 48 6
53 49 7
53 50 3
53 51 6
53 52 7
54 0 5
54 1 1
54 2 3
54 3 4
54 4 7
54 5 5
54 6 1
54 7 7
54 8 5
54 9 4
54 10 1
54 11 4
54 12 2
54 13 6
54 14 1
54 15 7
54 16 3
54 17 7
54 18 7
54 19 1
54 20 7
54 21 7
54 22 5
54 23 4
54 24 5
54 25 2
54 26 4
54 27 2
54 28 7
54 29 4
54 30 1
54 31 3
54 32 7
54 33 3
54 34 4
54 35 3
54 36 3
54 37 5
54 38 2
54 39 7
54 40 4
54 41 2
54 42 1
54 43 4
54 44 2
54 45 6
54 46 2
54 47 4
54 48 7
54 49 7
54 50 4
54 51 4
54 52 7
54 53 1
55 0 2
55 1 2
55 2 1
55 3 1
55 4 7
55 5 3
55 6 5
55 7 1
55 8 6
55 9 1
55 10 2
55 11 3
55 12 1
55 13 6
55 14 6
55 15 6
55 16 2
55 17 1
55 18 4
55 19 6
55 20 3
55 21 2
55 22 7
55 23 5
55 24 7
55 25 6
55 26 6
55 27 1
55 28 1
55 29 4
55 30 3
55 31 7
55 32 4
55 33 1
55 34 6
55 35 6
55 36 7
55 37 4
55 38 5
55 39 4
55 40 4
55 41 4
55 42 6
55 43 6
55 44 1
55 45 7
55 46 6
55 47 2
55 48 7
55 49 7
55 50 4
55 51 1
55 52 1
55 53 4
55 54 2
56 0 5
56 1 4
56 2 1
56 3 3
56 4 6
56 5 6
56 6 2
56 7 3
56 8 1
56 9 6
56 10 7
56 11 5
56 12 3
56 13 2
56 14 3
56 15 1
56 16 5
56 17 5
56 18 6
56 19 3
56 20 1
56 21 4
56 22 4
56 23 6
56 24 4
56 25 1
56 26 2
56 27 3
56 28 3
56 29 2
56 30 1
56 31 1
56 32 2
56 33 4
56 34 7
56 35 3
56 36 4
56 37 1
56 38 7
56 39 1
56 40 2
56 41 7
56 42 6
56 43 3
56 44 1
56 45 2
56 46 4
56 47 1
56 48 7
56 49 7
56 50 7
56 51 2
56 52 3
56 53 7
56 54 4
56 55 6
57 0 6
57 1 4
57 2 1
57 3 4
57 4 6
57 5 7
57 6 7
57 7 2
57 8 6
57 9 2
57 10 3
57 11 4
57 12 5
57 13 3
57 14 3
57 15 5
57 16 7
57 17 6
57 18 7
57 19 1
57 20 6
57 21 1
57 22 1
57 23 6
57 24 4
57 25 2
57 26 4
57 27 2
57 28 2
57 29 3
57 30 2
57 31 5
57 32 5
57 33 6
57 34 7
57 35 7
57 36 6
57 37 4
57 38 4
57 39 2
57 40 7
57 41 2
57 42 2
57 43 3
57 44 2
57 45 1
57 46 3
57 47 4
57 48 7
57 49 1
57 50 2
57 51 2
57 52 6
57 53 3
57 54 6
57 55 4
57 56 5
58 0 3
58 1 6
58 2 5
58 3 6
58 4 1
58 5 7
58 6 5
58 7 5
58 8 6
58 9 6
58 10 7
58 11 7
58 12 6
58 13 7
58 14 6
58 15 4
58 16 5
58 17 2
58 18 4
58 19 7
58 20 4
58 21 3
58 22 4
58 23 3
58 24 2
58 25 2
58 26 4
58 27 3
58 28 5
58 29 6
58 30 5
58 31 3
58 32 4
58 33 1
58 34 1
58 35 1
58 36 3
58 37 5
58 38 6
58 39 1
58 40 7
58 41 3
58 42 1
58 43 6
58 44 3
58 45 6
58 46 3
58 47 5
58 48 1
58 49 7
58 50 7
58 51 6
58 52 3
58 53 6
58 54 7
58 55 7
58 56 1
58 57 2
59 0 4
59 1 3
59 2 6
59 3 2
59 4 2
59 5 7
59 6 7
59 7 7
59 8 7
59 9 7
59 10 4
59 11 5
59 12 1
59 13 5
59 14 7
59 15 4
59 16 4
59 17 7
59 18 7
59 19 2
59 20 3
59 21 5
59 22 4
59 23 3
59 24 5
59 25 2
59 26 4
59 27 4
59 28 7
59 29 1
59 30 6
59 31 3
59 32 2
59 33 7
59 34 5
59 35 3
59 36 1
59 37 4
59 38 6
59 39 6
59 40 7
59 41 3
59 42 3
59 43 4
59 44 3
59 45 6
59 46 1
59 47 5
59 48 5
59 49 1
59 50 7
59 51 4
59 52 6
59 53 2
59 54 1
59 55 4
59 56 4
59 57 2
59 58 5
